NAME: A-n33-k6-C11-V2
TYPE: SoftCluVRP
DIMENSION:  33 
VEHICLES:  2 
GVRP_SETS:  11 
CAPACITY:  100 
EDGE_WEIGHT_TYPE: EUC_2D
NODE_COORD_SECTION 
1 34.000000 31.000000
2 45.000000 55.000000
3 70.000000 80.000000
4 81.000000 70.000000
5 85.000000 61.000000
6 59.000000 55.000000
7 45.000000 60.000000
8 50.000000 64.000000
9 80.000000 64.000000
10 75.000000 90.000000
11 25.000000 40.000000
12 9.000000 66.000000
13 1.000000 44.000000
14 50.000000 54.000000
15 35.000000 45.000000
16 71.000000 84.000000
17 1.000000 9.000000
18 25.000000 54.000000
19 45.000000 59.000000
20 45.000000 71.000000
21 66.000000 84.000000
22 11.000000 35.000000
23 81.000000 46.000000
24 85.000000 10.000000
25 75.000000 20.000000
26 15.000000 21.000000
27 90.000000 45.000000
28 15.000000 0.000000
29 31.000000 26.000000
30 10.000000 95.000000
31 6.000000 6.000000
32 51.000000 5.000000
33 26.000000 36.000000
GVRP_SET_SECTION 
 1 10  3  16  21 -1
 2  17  26  28  31 -1
 3  24  25 -1
 4  30 -1
 5  15  2  11  14  18  29  33 -1
 6  23  27 -1
 7  13  22 -1
 8  32 -1
 9  20  6  7  8  19 -1
 10  12 -1
 11  4  5  9 -1
 DEMAND_SECTION
 1 13 
 2 13 
 3 14 
 4 22 
 5 18 
 6 18 
 7 45 
 8 2 
 9 13 
 10 21 
 11 12 
EOF
